p tw 176 39601 2 
1 3 
1 4 
1 5 
1 6 
1 7 
1 8 
1 9 
1 10 
1 11 
1 12 
1 13 
1 14 
1 15 
1 16 
1 17 
1 18 
1 19 
1 20 
1 21 
1 22 
1 23 
1 24 
1 25 
1 26 
1 27 
1 28 
1 29 
1 30 
1 31 
1 32 
1 33 
1 34 
1 35 
1 36 
1 37 
1 38 
1 39 
1 40 
1 41 
1 42 
1 43 
1 44 
1 45 
1 46 
2 3 
2 4 
2 5 
2 6 
2 7 
2 8 
2 9 
2 10 
2 11 
2 12 
2 13 
2 14 
2 15 
2 16 
2 17 
2 29 
2 32 
2 45 
2 47 
2 48 
2 49 
2 50 
2 51 
2 52 
2 53 
2 54 
2 55 
2 56 
2 57 
2 58 
2 59 
2 68 
2 81 
2 89 
2 102 
2 107 
2 112 
2 131 
2 139 
2 149 
2 154 
2 158 
2 166 
2 169 
3 4 
3 5 
3 6 
3 7 
3 8 
3 9 
3 10 
3 11 
3 12 
3 13 
3 14 
3 15 
3 16 
3 18 
3 25 
3 32 
3 33 
3 47 
3 60 
3 61 
3 62 
3 63 
3 64 
3 65 
3 66 
3 67 
3 68 
3 69 
3 70 
3 71 
3 77 
3 86 
3 97 
3 109 
3 113 
3 124 
3 141 
3 146 
3 151 
3 152 
3 153 
3 154 
3 155 
4 5 
4 6 
4 7 
4 8 
4 9 
4 10 
4 11 
4 12 
4 13 
4 14 
4 15 
4 16 
4 19 
4 31 
4 34 
4 42 
4 48 
4 59 
4 60 
4 69 
4 72 
4 73 
4 74 
4 75 
4 76 
4 77 
4 78 
4 79 
4 80 
4 81 
4 82 
4 87 
4 97 
4 108 
4 116 
4 126 
4 128 
4 144 
4 167 
4 169 
4 172 
4 174 
5 6 
5 7 
5 8 
5 9 
5 10 
5 11 
5 12 
5 13 
5 14 
5 15 
5 16 
5 20 
5 28 
5 35 
5 44 
5 49 
5 51 
5 61 
5 69 
5 72 
5 81 
5 83 
5 84 
5 85 
5 86 
5 87 
5 88 
5 89 
5 90 
5 91 
5 92 
5 100 
5 118 
5 121 
5 136 
5 143 
5 153 
5 157 
5 161 
5 165 
5 168 
6 7 
6 8 
6 9 
6 10 
6 11 
6 12 
6 13 
6 14 
6 15 
6 16 
6 20 
6 22 
6 36 
6 40 
6 50 
6 53 
6 62 
6 65 
6 73 
6 77 
6 83 
6 93 
6 94 
6 95 
6 96 
6 97 
6 98 
6 99 
6 100 
6 101 
6 102 
6 106 
6 114 
6 128 
6 135 
6 136 
6 137 
6 138 
6 139 
6 140 
7 8 
7 9 
7 10 
7 11 
7 12 
7 13 
7 14 
7 15 
7 16 
7 21 
7 30 
7 35 
7 44 
7 51 
7 57 
7 63 
7 65 
7 74 
7 79 
7 92 
7 93 
7 96 
7 103 
7 104 
7 105 
7 106 
7 107 
7 108 
7 109 
7 110 
7 111 
7 119 
7 127 
7 145 
7 146 
7 159 
7 162 
7 169 
7 176 
8 9 
8 10 
8 11 
8 12 
8 13 
8 14 
8 15 
8 16 
8 17 
8 23 
8 36 
8 37 
8 54 
8 61 
8 66 
8 75 
8 78 
8 84 
8 94 
8 103 
8 107 
8 112 
8 113 
8 114 
8 115 
8 116 
8 117 
8 118 
8 119 
8 120 
8 122 
8 129 
8 135 
8 141 
8 142 
8 143 
8 144 
8 145 
9 10 
9 11 
9 12 
9 13 
9 14 
9 15 
9 16 
9 18 
9 26 
9 38 
9 42 
9 52 
9 56 
9 68 
9 76 
9 79 
9 83 
9 84 
9 95 
9 100 
9 104 
9 110 
9 112 
9 117 
9 121 
9 122 
9 123 
9 124 
9 125 
9 126 
9 127 
9 132 
9 138 
9 148 
9 152 
9 160 
9 164 
10 11 
10 12 
10 13 
10 14 
10 15 
10 16 
10 19 
10 27 
10 39 
10 43 
10 49 
10 57 
10 63 
10 64 
10 80 
10 88 
10 96 
10 101 
10 105 
10 113 
10 114 
10 121 
10 122 
10 128 
10 129 
10 130 
10 131 
10 132 
10 133 
10 134 
10 147 
10 152 
10 156 
10 165 
10 166 
10 167 
11 12 
11 13 
11 14 
11 15 
11 16 
11 24 
11 30 
11 39 
11 43 
11 54 
11 58 
11 60 
11 67 
11 73 
11 85 
11 91 
11 94 
11 106 
11 108 
11 115 
11 123 
11 125 
11 133 
11 136 
11 144 
11 146 
11 147 
11 148 
11 149 
11 150 
11 155 
11 158 
11 160 
11 168 
11 173 
12 13 
12 14 
12 15 
12 16 
12 22 
12 24 
12 34 
12 41 
12 47 
12 59 
12 71 
12 72 
12 88 
12 95 
12 98 
12 103 
12 110 
12 116 
12 123 
12 129 
12 130 
12 137 
12 142 
12 151 
12 154 
12 156 
12 157 
12 158 
12 159 
12 164 
12 168 
12 171 
12 175 
12 176 
13 14 
13 15 
13 16 
13 21 
13 23 
13 37 
13 38 
13 53 
13 55 
13 66 
13 70 
13 75 
13 76 
13 87 
13 92 
13 98 
13 99 
13 111 
13 131 
13 133 
13 137 
13 147 
13 148 
13 151 
13 153 
13 160 
13 161 
13 162 
13 163 
13 166 
13 170 
13 174 
13 175 
14 15 
14 16 
14 27 
14 29 
14 40 
14 46 
14 50 
14 52 
14 67 
14 71 
14 74 
14 78 
14 90 
14 91 
14 102 
14 105 
14 117 
14 118 
14 124 
14 134 
14 138 
14 145 
14 150 
14 155 
14 156 
14 157 
14 162 
14 163 
14 170 
14 171 
14 172 
14 174 
15 16 
15 25 
15 31 
15 45 
15 46 
15 55 
15 58 
15 62 
15 70 
15 80 
15 82 
15 86 
15 90 
15 99 
15 104 
15 111 
15 119 
15 120 
15 126 
15 130 
15 132 
15 135 
15 140 
15 143 
15 149 
15 150 
15 159 
15 164 
15 165 
15 171 
15 173 
16 26 
16 28 
16 33 
16 41 
16 48 
16 56 
16 64 
16 82 
16 85 
16 89 
16 93 
16 101 
16 109 
16 115 
16 120 
16 125 
16 127 
16 134 
16 139 
16 140 
16 141 
16 142 
16 161 
16 163 
16 167 
16 170 
16 172 
16 173 
16 175 
16 176 
17 18 
17 19 
17 20 
17 21 
17 22 
17 23 
17 24 
17 25 
17 26 
17 27 
17 28 
17 29 
17 30 
17 31 
17 32 
17 37 
17 47 
17 48 
17 49 
17 50 
17 51 
17 52 
17 53 
17 54 
17 55 
17 56 
17 57 
17 58 
17 59 
17 61 
17 75 
17 94 
17 103 
17 112 
17 113 
17 114 
17 115 
17 116 
17 117 
17 118 
17 119 
17 120 
18 19 
18 20 
18 21 
18 22 
18 23 
18 24 
18 25 
18 26 
18 27 
18 28 
18 29 
18 30 
18 31 
18 33 
18 38 
18 47 
18 52 
18 60 
18 61 
18 62 
18 63 
18 64 
18 65 
18 66 
18 67 
18 68 
18 69 
18 70 
18 71 
18 76 
18 83 
18 95 
18 104 
18 112 
18 121 
18 122 
18 123 
18 124 
18 125 
18 126 
18 127 
19 20 
19 21 
19 22 
19 23 
19 24 
19 25 
19 26 
19 27 
19 28 
19 29 
19 30 
19 31 
19 34 
19 39 
19 48 
19 49 
19 60 
19 64 
19 72 
19 73 
19 74 
19 75 
19 76 
19 77 
19 78 
19 79 
19 80 
19 81 
19 82 
19 96 
19 105 
19 113 
19 121 
19 128 
19 129 
19 130 
19 131 
19 132 
19 133 
19 134 
20 21 
20 22 
20 23 
20 24 
20 25 
20 26 
20 27 
20 28 
20 29 
20 30 
20 31 
20 35 
20 36 
20 49 
20 50 
20 61 
20 62 
20 72 
20 73 
20 83 
20 84 
20 85 
20 86 
20 87 
20 88 
20 89 
20 90 
20 91 
20 92 
20 93 
20 94 
20 95 
20 96 
20 97 
20 98 
20 99 
20 100 
20 101 
20 102 
21 22 
21 23 
21 24 
21 25 
21 26 
21 27 
21 28 
21 29 
21 30 
21 31 
21 35 
21 37 
21 51 
21 55 
21 63 
21 66 
21 74 
21 76 
21 87 
21 93 
21 99 
21 103 
21 104 
21 105 
21 106 
21 107 
21 108 
21 109 
21 110 
21 111 
21 131 
21 137 
21 147 
21 151 
21 160 
21 161 
21 162 
21 163 
22 23 
22 24 
22 25 
22 26 
22 27 
22 28 
22 29 
22 30 
22 31 
22 40 
22 41 
22 47 
22 53 
22 65 
22 72 
22 77 
22 83 
22 98 
22 106 
22 110 
22 114 
22 116 
22 123 
22 128 
22 130 
22 135 
22 136 
22 137 
22 138 
22 139 
22 140 
22 142 
22 151 
22 156 
22 157 
22 158 
22 159 
23 24 
23 25 
23 26 
23 27 
23 28 
23 29 
23 30 
23 31 
23 36 
23 38 
23 53 
23 54 
23 66 
23 70 
23 75 
23 78 
23 84 
23 92 
23 98 
23 107 
23 111 
23 122 
23 129 
23 133 
23 135 
23 141 
23 142 
23 143 
23 144 
23 145 
23 148 
23 153 
23 166 
23 170 
23 174 
23 175 
24 25 
24 26 
24 27 
24 28 
24 29 
24 30 
24 31 
24 34 
24 39 
24 54 
24 59 
24 67 
24 71 
24 73 
24 85 
24 88 
24 95 
24 103 
24 108 
24 115 
24 123 
24 129 
24 136 
24 137 
24 146 
24 147 
24 148 
24 149 
24 150 
24 154 
24 164 
24 168 
24 171 
24 175 
24 176 
25 26 
25 27 
25 28 
25 29 
25 30 
25 31 
25 32 
25 46 
25 55 
25 62 
25 77 
25 80 
25 86 
25 90 
25 97 
25 109 
25 111 
25 113 
25 119 
25 124 
25 126 
25 130 
25 140 
25 141 
25 143 
25 146 
25 149 
25 151 
25 152 
25 153 
25 154 
25 155 
25 164 
25 173 
26 27 
26 28 
26 29 
26 30 
26 31 
26 33 
26 42 
26 48 
26 56 
26 68 
26 79 
26 84 
26 85 
26 100 
26 101 
26 109 
26 110 
26 117 
26 120 
26 127 
26 132 
26 134 
26 138 
26 139 
26 142 
26 148 
26 152 
26 160 
26 161 
26 164 
26 172 
26 173 
26 175 
27 28 
27 29 
27 30 
27 31 
27 40 
27 43 
27 52 
27 57 
27 63 
27 67 
27 78 
27 80 
27 88 
27 90 
27 101 
27 102 
27 105 
27 114 
27 117 
27 122 
27 147 
27 152 
27 155 
27 156 
27 157 
27 162 
27 165 
27 166 
27 167 
27 170 
27 171 
27 172 
28 29 
28 30 
28 31 
28 41 
28 44 
28 51 
28 56 
28 64 
28 69 
28 81 
28 82 
28 89 
28 93 
28 100 
28 115 
28 118 
28 121 
28 125 
28 136 
28 140 
28 141 
28 143 
28 153 
28 157 
28 161 
28 163 
28 165 
28 167 
28 168 
28 170 
28 176 
29 30 
29 31 
29 45 
29 46 
29 50 
29 68 
29 71 
29 74 
29 81 
29 89 
29 91 
29 102 
29 107 
29 112 
29 118 
29 124 
29 131 
29 134 
29 138 
29 139 
29 145 
29 149 
29 150 
29 154 
29 156 
29 158 
29 163 
29 166 
29 169 
29 174 
30 31 
30 43 
30 44 
30 57 
30 58 
30 60 
30 65 
30 79 
30 91 
30 92 
30 94 
30 96 
30 106 
30 119 
30 125 
30 127 
30 133 
30 144 
30 145 
30 146 
30 155 
30 158 
30 159 
30 160 
30 162 
30 168 
30 169 
30 173 
30 176 
31 42 
31 45 
31 58 
31 59 
31 69 
31 70 
31 82 
31 86 
31 87 
31 97 
31 99 
31 104 
31 108 
31 116 
31 120 
31 126 
31 128 
31 132 
31 135 
31 144 
31 150 
31 159 
31 165 
31 167 
31 169 
31 171 
31 172 
31 174 
32 33 
32 34 
32 35 
32 36 
32 37 
32 38 
32 39 
32 40 
32 41 
32 42 
32 43 
32 44 
32 45 
32 46 
32 47 
32 48 
32 49 
32 50 
32 51 
32 52 
32 53 
32 54 
32 55 
32 56 
32 57 
32 58 
32 59 
32 77 
32 86 
32 97 
32 109 
32 113 
32 124 
32 141 
32 146 
32 151 
32 152 
32 153 
32 154 
32 155 
33 34 
33 35 
33 36 
33 37 
33 38 
33 39 
33 40 
33 41 
33 42 
33 43 
33 44 
33 45 
33 46 
33 47 
33 48 
33 60 
33 61 
33 62 
33 63 
33 64 
33 65 
33 66 
33 67 
33 68 
33 69 
33 70 
33 71 
33 85 
33 101 
33 109 
33 120 
33 127 
33 134 
33 139 
33 142 
33 161 
33 172 
33 173 
33 175 
34 35 
34 36 
34 37 
34 38 
34 39 
34 40 
34 41 
34 42 
34 43 
34 44 
34 45 
34 46 
34 48 
34 59 
34 60 
34 71 
34 72 
34 73 
34 74 
34 75 
34 76 
34 77 
34 78 
34 79 
34 80 
34 81 
34 82 
34 88 
34 95 
34 103 
34 129 
34 137 
34 154 
34 164 
34 168 
34 171 
34 175 
34 176 
35 36 
35 37 
35 38 
35 39 
35 40 
35 41 
35 42 
35 43 
35 44 
35 45 
35 46 
35 49 
35 51 
35 61 
35 63 
35 72 
35 74 
35 83 
35 84 
35 85 
35 86 
35 87 
35 88 
35 89 
35 90 
35 91 
35 92 
35 93 
35 103 
35 104 
35 105 
35 106 
35 107 
35 108 
35 109 
35 110 
35 111 
36 37 
36 38 
36 39 
36 40 
36 41 
36 42 
36 43 
36 44 
36 45 
36 46 
36 50 
36 54 
36 62 
36 66 
36 73 
36 78 
36 84 
36 93 
36 94 
36 95 
36 96 
36 97 
36 98 
36 99 
36 100 
36 101 
36 102 
36 107 
36 122 
36 129 
36 135 
36 141 
36 142 
36 143 
36 144 
36 145 
37 38 
37 39 
37 40 
37 41 
37 42 
37 43 
37 44 
37 45 
37 46 
37 55 
37 61 
37 66 
37 75 
37 76 
37 87 
37 94 
37 99 
37 103 
37 112 
37 113 
37 114 
37 115 
37 116 
37 117 
37 118 
37 119 
37 120 
37 131 
37 137 
37 147 
37 151 
37 160 
37 161 
37 162 
37 163 
38 39 
38 40 
38 41 
38 42 
38 43 
38 44 
38 45 
38 46 
38 52 
38 53 
38 70 
38 75 
38 76 
38 83 
38 92 
38 95 
38 98 
38 104 
38 111 
38 112 
38 121 
38 122 
38 123 
38 124 
38 125 
38 126 
38 127 
38 133 
38 148 
38 153 
38 166 
38 170 
38 174 
38 175 
39 40 
39 41 
39 42 
39 43 
39 44 
39 45 
39 46 
39 49 
39 54 
39 64 
39 67 
39 73 
39 85 
39 96 
39 105 
39 108 
39 113 
39 115 
39 121 
39 123 
39 128 
39 129 
39 130 
39 131 
39 132 
39 133 
39 134 
39 136 
39 146 
39 147 
39 148 
39 149 
39 150 
40 41 
40 42 
40 43 
40 44 
40 45 
40 46 
40 52 
40 53 
40 65 
40 67 
40 77 
40 78 
40 83 
40 90 
40 102 
40 105 
40 106 
40 114 
40 117 
40 128 
40 135 
40 136 
40 137 
40 138 
40 139 
40 140 
40 155 
40 157 
40 162 
40 170 
40 171 
40 172 
41 42 
41 43 
41 44 
41 45 
41 46 
41 47 
41 56 
41 64 
41 72 
41 82 
41 89 
41 93 
41 98 
41 110 
41 115 
41 116 
41 123 
41 125 
41 130 
41 140 
41 141 
41 142 
41 151 
41 156 
41 157 
41 158 
41 159 
41 163 
41 167 
41 170 
41 176 
42 43 
42 44 
42 45 
42 46 
42 56 
42 59 
42 68 
42 69 
42 79 
42 84 
42 87 
42 97 
42 100 
42 108 
42 110 
42 116 
42 117 
42 126 
42 128 
42 132 
42 138 
42 144 
42 148 
42 152 
42 160 
42 164 
42 167 
42 169 
42 172 
42 174 
43 44 
43 45 
43 46 
43 57 
43 58 
43 60 
43 63 
43 80 
43 88 
43 91 
43 94 
43 101 
43 106 
43 114 
43 122 
43 125 
43 133 
43 144 
43 147 
43 152 
43 155 
43 156 
43 158 
43 160 
43 165 
43 166 
43 167 
43 168 
43 173 
44 45 
44 46 
44 51 
44 57 
44 65 
44 69 
44 79 
44 81 
44 92 
44 96 
44 100 
44 118 
44 119 
44 121 
44 127 
44 136 
44 143 
44 145 
44 146 
44 153 
44 157 
44 159 
44 161 
44 162 
44 165 
44 168 
44 169 
44 176 
45 46 
45 58 
45 68 
45 70 
45 81 
45 82 
45 86 
45 89 
45 99 
45 102 
45 104 
45 107 
45 112 
45 120 
45 131 
45 132 
45 135 
45 139 
45 149 
45 150 
45 154 
45 158 
45 159 
45 165 
45 166 
45 169 
45 171 
46 50 
46 55 
46 62 
46 71 
46 74 
46 80 
46 90 
46 91 
46 111 
46 118 
46 119 
46 124 
46 126 
46 130 
46 134 
46 138 
46 140 
46 143 
46 145 
46 149 
46 150 
46 156 
46 163 
46 164 
46 173 
46 174 
47 48 
47 49 
47 50 
47 51 
47 52 
47 53 
47 54 
47 55 
47 56 
47 57 
47 58 
47 59 
47 60 
47 61 
47 62 
47 63 
47 64 
47 65 
47 66 
47 67 
47 68 
47 69 
47 70 
47 71 
47 72 
47 98 
47 110 
47 116 
47 123 
47 130 
47 142 
47 151 
47 156 
47 157 
47 158 
47 159 
48 49 
48 50 
48 51 
48 52 
48 53 
48 54 
48 55 
48 56 
48 57 
48 58 
48 59 
48 60 
48 72 
48 73 
48 74 
48 75 
48 76 
48 77 
48 78 
48 79 
48 80 
48 81 
48 82 
48 85 
48 101 
48 109 
48 120 
48 127 
48 134 
48 139 
48 142 
48 161 
48 172 
48 173 
48 175 
49 50 
49 51 
49 52 
49 53 
49 54 
49 55 
49 56 
49 57 
49 58 
49 59 
49 61 
49 64 
49 72 
49 83 
49 84 
49 85 
49 86 
49 87 
49 88 
49 89 
49 90 
49 91 
49 92 
49 96 
49 105 
49 113 
49 121 
49 128 
49 129 
49 130 
49 131 
49 132 
49 133 
49 134 
50 51 
50 52 
50 53 
50 54 
50 55 
50 56 
50 57 
50 58 
50 59 
50 62 
50 71 
50 73 
50 74 
50 91 
50 93 
50 94 
50 95 
50 96 
50 97 
50 98 
50 99 
50 100 
50 101 
50 102 
50 118 
50 124 
50 134 
50 138 
50 145 
50 150 
50 156 
50 163 
50 174 
51 52 
51 53 
51 54 
51 55 
51 56 
51 57 
51 58 
51 59 
51 63 
51 69 
51 74 
51 81 
51 93 
51 100 
51 103 
51 104 
51 105 
51 106 
51 107 
51 108 
51 109 
51 110 
51 111 
51 118 
51 121 
51 136 
51 143 
51 153 
51 157 
51 161 
51 165 
51 168 
52 53 
52 54 
52 55 
52 56 
52 57 
52 58 
52 59 
52 67 
52 76 
52 78 
52 83 
52 90 
52 95 
52 102 
52 104 
52 105 
52 112 
52 117 
52 121 
52 122 
52 123 
52 124 
52 125 
52 126 
52 127 
52 155 
52 157 
52 162 
52 170 
52 171 
52 172 
53 54 
53 55 
53 56 
53 57 
53 58 
53 59 
53 65 
53 70 
53 75 
53 77 
53 83 
53 92 
53 98 
53 106 
53 111 
53 114 
53 128 
53 133 
53 135 
53 136 
53 137 
53 138 
53 139 
53 140 
53 148 
53 153 
53 166 
53 170 
53 174 
53 175 
54 55 
54 56 
54 57 
54 58 
54 59 
54 66 
54 67 
54 73 
54 78 
54 84 
54 85 
54 107 
54 108 
54 115 
54 122 
54 123 
54 129 
54 135 
54 136 
54 141 
54 142 
54 143 
54 144 
54 145 
54 146 
54 147 
54 148 
54 149 
54 150 
55 56 
55 57 
55 58 
55 59 
55 62 
55 66 
55 76 
55 80 
55 87 
55 90 
55 99 
55 111 
55 119 
55 126 
55 130 
55 131 
55 137 
55 140 
55 143 
55 147 
55 149 
55 151 
55 160 
55 161 
55 162 
55 163 
55 164 
55 173 
56 57 
56 58 
56 59 
56 64 
56 68 
56 79 
56 82 
56 84 
56 89 
56 93 
56 100 
56 110 
56 115 
56 117 
56 125 
56 132 
56 138 
56 140 
56 141 
56 148 
56 152 
56 160 
56 163 
56 164 
56 167 
56 170 
56 176 
57 58 
57 59 
57 63 
57 65 
57 79 
57 80 
57 88 
57 92 
57 96 
57 101 
57 114 
57 119 
57 122 
57 127 
57 145 
57 146 
57 147 
57 152 
57 156 
57 159 
57 162 
57 165 
57 166 
57 167 
57 169 
57 176 
58 59 
58 60 
58 70 
58 82 
58 86 
58 91 
58 94 
58 99 
58 104 
58 106 
58 120 
58 125 
58 132 
58 133 
58 135 
58 144 
58 150 
58 155 
58 158 
58 159 
58 160 
58 165 
58 168 
58 171 
58 173 
59 69 
59 71 
59 87 
59 88 
59 95 
59 97 
59 103 
59 108 
59 116 
59 126 
59 128 
59 129 
59 137 
59 144 
59 154 
59 164 
59 167 
59 168 
59 169 
59 171 
59 172 
59 174 
59 175 
59 176 
60 61 
60 62 
60 63 
60 64 
60 65 
60 66 
60 67 
60 68 
60 69 
60 70 
60 71 
60 72 
60 73 
60 74 
60 75 
60 76 
60 77 
60 78 
60 79 
60 80 
60 81 
60 82 
60 91 
60 94 
60 106 
60 125 
60 133 
60 144 
60 155 
60 158 
60 160 
60 168 
60 173 
61 62 
61 63 
61 64 
61 65 
61 66 
61 67 
61 68 
61 69 
61 70 
61 71 
61 72 
61 75 
61 83 
61 84 
61 85 
61 86 
61 87 
61 88 
61 89 
61 90 
61 91 
61 92 
61 94 
61 103 
61 112 
61 113 
61 114 
61 115 
61 116 
61 117 
61 118 
61 119 
61 120 
62 63 
62 64 
62 65 
62 66 
62 67 
62 68 
62 69 
62 70 
62 71 
62 73 
62 80 
62 90 
62 93 
62 94 
62 95 
62 96 
62 97 
62 98 
62 99 
62 100 
62 101 
62 102 
62 111 
62 119 
62 126 
62 130 
62 140 
62 143 
62 149 
62 164 
62 173 
63 64 
63 65 
63 66 
63 67 
63 68 
63 69 
63 70 
63 71 
63 74 
63 80 
63 88 
63 93 
63 101 
63 103 
63 104 
63 105 
63 106 
63 107 
63 108 
63 109 
63 110 
63 111 
63 114 
63 122 
63 147 
63 152 
63 156 
63 165 
63 166 
63 167 
64 65 
64 66 
64 67 
64 68 
64 69 
64 70 
64 71 
64 82 
64 89 
64 93 
64 96 
64 105 
64 113 
64 115 
64 121 
64 125 
64 128 
64 129 
64 130 
64 131 
64 132 
64 133 
64 134 
64 140 
64 141 
64 163 
64 167 
64 170 
64 176 
65 66 
65 67 
65 68 
65 69 
65 70 
65 71 
65 77 
65 79 
65 83 
65 92 
65 96 
65 106 
65 114 
65 119 
65 127 
65 128 
65 135 
65 136 
65 137 
65 138 
65 139 
65 140 
65 145 
65 146 
65 159 
65 162 
65 169 
65 176 
66 67 
66 68 
66 69 
66 70 
66 71 
66 76 
66 78 
66 84 
66 87 
66 99 
66 107 
66 122 
66 129 
66 131 
66 135 
66 137 
66 141 
66 142 
66 143 
66 144 
66 145 
66 147 
66 151 
66 160 
66 161 
66 162 
66 163 
67 68 
67 69 
67 70 
67 71 
67 73 
67 78 
67 85 
67 90 
67 102 
67 105 
67 108 
67 115 
67 117 
67 123 
67 136 
67 146 
67 147 
67 148 
67 149 
67 150 
67 155 
67 157 
67 162 
67 170 
67 171 
67 172 
68 69 
68 70 
68 71 
68 79 
68 81 
68 84 
68 89 
68 100 
68 102 
68 107 
68 110 
68 112 
68 117 
68 131 
68 132 
68 138 
68 139 
68 148 
68 149 
68 152 
68 154 
68 158 
68 160 
68 164 
68 166 
68 169 
69 70 
69 71 
69 81 
69 87 
69 97 
69 100 
69 108 
69 116 
69 118 
69 121 
69 126 
69 128 
69 136 
69 143 
69 144 
69 153 
69 157 
69 161 
69 165 
69 167 
69 168 
69 169 
69 172 
69 174 
70 71 
70 75 
70 82 
70 86 
70 92 
70 98 
70 99 
70 104 
70 111 
70 120 
70 132 
70 133 
70 135 
70 148 
70 150 
70 153 
70 159 
70 165 
70 166 
70 170 
70 171 
70 174 
70 175 
71 74 
71 88 
71 91 
71 95 
71 103 
71 118 
71 124 
71 129 
71 134 
71 137 
71 138 
71 145 
71 150 
71 154 
71 156 
71 163 
71 164 
71 168 
71 171 
71 174 
71 175 
71 176 
72 73 
72 74 
72 75 
72 76 
72 77 
72 78 
72 79 
72 80 
72 81 
72 82 
72 83 
72 84 
72 85 
72 86 
72 87 
72 88 
72 89 
72 90 
72 91 
72 92 
72 98 
72 110 
72 116 
72 123 
72 130 
72 142 
72 151 
72 156 
72 157 
72 158 
72 159 
73 74 
73 75 
73 76 
73 77 
73 78 
73 79 
73 80 
73 81 
73 82 
73 85 
73 93 
73 94 
73 95 
73 96 
73 97 
73 98 
73 99 
73 100 
73 101 
73 102 
73 108 
73 115 
73 123 
73 136 
73 146 
73 147 
73 148 
73 149 
73 150 
74 75 
74 76 
74 77 
74 78 
74 79 
74 80 
74 81 
74 82 
74 91 
74 93 
74 103 
74 104 
74 105 
74 106 
74 107 
74 108 
74 109 
74 110 
74 111 
74 118 
74 124 
74 134 
74 138 
74 145 
74 150 
74 156 
74 163 
74 174 
75 76 
75 77 
75 78 
75 79 
75 80 
75 81 
75 82 
75 92 
75 94 
75 98 
75 103 
75 111 
75 112 
75 113 
75 114 
75 115 
75 116 
75 117 
75 118 
75 119 
75 120 
75 133 
75 148 
75 153 
75 166 
75 170 
75 174 
75 175 
76 77 
76 78 
76 79 
76 80 
76 81 
76 82 
76 83 
76 87 
76 95 
76 99 
76 104 
76 112 
76 121 
76 122 
76 123 
76 124 
76 125 
76 126 
76 127 
76 131 
76 137 
76 147 
76 151 
76 160 
76 161 
76 162 
76 163 
77 78 
77 79 
77 80 
77 81 
77 82 
77 83 
77 86 
77 97 
77 106 
77 109 
77 113 
77 114 
77 124 
77 128 
77 135 
77 136 
77 137 
77 138 
77 139 
77 140 
77 141 
77 146 
77 151 
77 152 
77 153 
77 154 
77 155 
78 79 
78 80 
78 81 
78 82 
78 84 
78 90 
78 102 
78 105 
78 107 
78 117 
78 122 
78 129 
78 135 
78 141 
78 142 
78 143 
78 144 
78 145 
78 155 
78 157 
78 162 
78 170 
78 171 
78 172 
79 80 
79 81 
79 82 
79 84 
79 92 
79 96 
79 100 
79 110 
79 117 
79 119 
79 127 
79 132 
79 138 
79 145 
79 146 
79 148 
79 152 
79 159 
79 160 
79 162 
79 164 
79 169 
79 176 
80 81 
80 82 
80 88 
80 90 
80 101 
80 111 
80 114 
80 119 
80 122 
80 126 
80 130 
80 140 
80 143 
80 147 
80 149 
80 152 
80 156 
80 164 
80 165 
80 166 
80 167 
80 173 
81 82 
81 89 
81 100 
81 102 
81 107 
81 112 
81 118 
81 121 
81 131 
81 136 
81 139 
81 143 
81 149 
81 153 
81 154 
81 157 
81 158 
81 161 
81 165 
81 166 
81 168 
81 169 
82 86 
82 89 
82 93 
82 99 
82 104 
82 115 
82 120 
82 125 
82 132 
82 135 
82 140 
82 141 
82 150 
82 159 
82 163 
82 165 
82 167 
82 170 
82 171 
82 176 
83 84 
83 85 
83 86 
83 87 
83 88 
83 89 
83 90 
83 91 
83 92 
83 95 
83 104 
83 106 
83 112 
83 114 
83 121 
83 122 
83 123 
83 124 
83 125 
83 126 
83 127 
83 128 
83 135 
83 136 
83 137 
83 138 
83 139 
83 140 
84 85 
84 86 
84 87 
84 88 
84 89 
84 90 
84 91 
84 92 
84 100 
84 107 
84 110 
84 117 
84 122 
84 129 
84 132 
84 135 
84 138 
84 141 
84 142 
84 143 
84 144 
84 145 
84 148 
84 152 
84 160 
84 164 
85 86 
85 87 
85 88 
85 89 
85 90 
85 91 
85 92 
85 101 
85 108 
85 109 
85 115 
85 120 
85 123 
85 127 
85 134 
85 136 
85 139 
85 142 
85 146 
85 147 
85 148 
85 149 
85 150 
85 161 
85 172 
85 173 
85 175 
86 87 
86 88 
86 89 
86 90 
86 91 
86 92 
86 97 
86 99 
86 104 
86 109 
86 113 
86 120 
86 124 
86 132 
86 135 
86 141 
86 146 
86 150 
86 151 
86 152 
86 153 
86 154 
86 155 
86 159 
86 165 
86 171 
87 88 
87 89 
87 90 
87 91 
87 92 
87 97 
87 99 
87 108 
87 116 
87 126 
87 128 
87 131 
87 137 
87 144 
87 147 
87 151 
87 160 
87 161 
87 162 
87 163 
87 167 
87 169 
87 172 
87 174 
88 89 
88 90 
88 91 
88 92 
88 95 
88 101 
88 103 
88 114 
88 122 
88 129 
88 137 
88 147 
88 152 
88 154 
88 156 
88 164 
88 165 
88 166 
88 167 
88 168 
88 171 
88 175 
88 176 
89 90 
89 91 
89 92 
89 93 
89 102 
89 107 
89 112 
89 115 
89 125 
89 131 
89 139 
89 140 
89 141 
89 149 
89 154 
89 158 
89 163 
89 166 
89 167 
89 169 
89 170 
89 176 
90 91 
90 92 
90 102 
90 105 
90 111 
90 117 
90 119 
90 126 
90 130 
90 140 
90 143 
90 149 
90 155 
90 157 
90 162 
90 164 
90 170 
90 171 
90 172 
90 173 
91 92 
91 94 
91 106 
91 118 
91 124 
91 125 
91 133 
91 134 
91 138 
91 144 
91 145 
91 150 
91 155 
91 156 
91 158 
91 160 
91 163 
91 168 
91 173 
91 174 
92 96 
92 98 
92 111 
92 119 
92 127 
92 133 
92 145 
92 146 
92 148 
92 153 
92 159 
92 162 
92 166 
92 169 
92 170 
92 174 
92 175 
92 176 
93 94 
93 95 
93 96 
93 97 
93 98 
93 99 
93 100 
93 101 
93 102 
93 103 
93 104 
93 105 
93 106 
93 107 
93 108 
93 109 
93 110 
93 111 
93 115 
93 125 
93 140 
93 141 
93 163 
93 167 
93 170 
93 176 
94 95 
94 96 
94 97 
94 98 
94 99 
94 100 
94 101 
94 102 
94 103 
94 106 
94 112 
94 113 
94 114 
94 115 
94 116 
94 117 
94 118 
94 119 
94 120 
94 125 
94 133 
94 144 
94 155 
94 158 
94 160 
94 168 
94 173 
95 96 
95 97 
95 98 
95 99 
95 100 
95 101 
95 102 
95 103 
95 104 
95 112 
95 121 
95 122 
95 123 
95 124 
95 125 
95 126 
95 127 
95 129 
95 137 
95 154 
95 164 
95 168 
95 171 
95 175 
95 176 
96 97 
96 98 
96 99 
96 100 
96 101 
96 102 
96 105 
96 113 
96 119 
96 121 
96 127 
96 128 
96 129 
96 130 
96 131 
96 132 
96 133 
96 134 
96 145 
96 146 
96 159 
96 162 
96 169 
96 176 
97 98 
97 99 
97 100 
97 101 
97 102 
97 108 
97 109 
97 113 
97 116 
97 124 
97 126 
97 128 
97 141 
97 144 
97 146 
97 151 
97 152 
97 153 
97 154 
97 155 
97 167 
97 169 
97 172 
97 174 
98 99 
98 100 
98 101 
98 102 
98 110 
98 111 
98 116 
98 123 
98 130 
98 133 
98 142 
98 148 
98 151 
98 153 
98 156 
98 157 
98 158 
98 159 
98 166 
98 170 
98 174 
98 175 
99 100 
99 101 
99 102 
99 104 
99 120 
99 131 
99 132 
99 135 
99 137 
99 147 
99 150 
99 151 
99 159 
99 160 
99 161 
99 162 
99 163 
99 165 
99 171 
100 101 
100 102 
100 110 
100 117 
100 118 
100 121 
100 132 
100 136 
100 138 
100 143 
100 148 
100 152 
100 153 
100 157 
100 160 
100 161 
100 164 
100 165 
100 168 
101 102 
101 109 
101 114 
101 120 
101 122 
101 127 
101 134 
101 139 
101 142 
101 147 
101 152 
101 156 
101 161 
101 165 
101 166 
101 167 
101 172 
101 173 
101 175 
102 105 
102 107 
102 112 
102 117 
102 131 
102 139 
102 149 
102 154 
102 155 
102 157 
102 158 
102 162 
102 166 
102 169 
102 170 
102 171 
102 172 
103 104 
103 105 
103 106 
103 107 
103 108 
103 109 
103 110 
103 111 
103 112 
103 113 
103 114 
103 115 
103 116 
103 117 
103 118 
103 119 
103 120 
103 129 
103 137 
103 154 
103 164 
103 168 
103 171 
103 175 
103 176 
104 105 
104 106 
104 107 
104 108 
104 109 
104 110 
104 111 
104 112 
104 120 
104 121 
104 122 
104 123 
104 124 
104 125 
104 126 
104 127 
104 132 
104 135 
104 150 
104 159 
104 165 
104 171 
105 106 
105 107 
105 108 
105 109 
105 110 
105 111 
105 113 
105 117 
105 121 
105 128 
105 129 
105 130 
105 131 
105 132 
105 133 
105 134 
105 155 
105 157 
105 162 
105 170 
105 171 
105 172 
106 107 
106 108 
106 109 
106 110 
106 111 
106 114 
106 125 
106 128 
106 133 
106 135 
106 136 
106 137 
106 138 
106 139 
106 140 
106 144 
106 155 
106 158 
106 160 
106 168 
106 173 
107 108 
107 109 
107 110 
107 111 
107 112 
107 122 
107 129 
107 131 
107 135 
107 139 
107 141 
107 142 
107 143 
107 144 
107 145 
107 149 
107 154 
107 158 
107 166 
107 169 
108 109 
108 110 
108 111 
108 115 
108 116 
108 123 
108 126 
108 128 
108 136 
108 144 
108 146 
108 147 
108 148 
108 149 
108 150 
108 167 
108 169 
108 172 
108 174 
109 110 
109 111 
109 113 
109 120 
109 124 
109 127 
109 134 
109 139 
109 141 
109 142 
109 146 
109 151 
109 152 
109 153 
109 154 
109 155 
109 161 
109 172 
109 173 
109 175 
110 111 
110 116 
110 117 
110 123 
110 130 
110 132 
110 138 
110 142 
110 148 
110 151 
110 152 
110 156 
110 157 
110 158 
110 159 
110 160 
110 164 
111 119 
111 126 
111 130 
111 133 
111 140 
111 143 
111 148 
111 149 
111 153 
111 164 
111 166 
111 170 
111 173 
111 174 
111 175 
112 113 
112 114 
112 115 
112 116 
112 117 
112 118 
112 119 
112 120 
112 121 
112 122 
112 123 
112 124 
112 125 
112 126 
112 127 
112 131 
112 139 
112 149 
112 154 
112 158 
112 166 
112 169 
113 114 
113 115 
113 116 
113 117 
113 118 
113 119 
113 120 
113 121 
113 124 
113 128 
113 129 
113 130 
113 131 
113 132 
113 133 
113 134 
113 141 
113 146 
113 151 
113 152 
113 153 
113 154 
113 155 
114 115 
114 116 
114 117 
114 118 
114 119 
114 120 
114 122 
114 128 
114 135 
114 136 
114 137 
114 138 
114 139 
114 140 
114 147 
114 152 
114 156 
114 165 
114 166 
114 167 
115 116 
115 117 
115 118 
115 119 
115 120 
115 123 
115 125 
115 136 
115 140 
115 141 
115 146 
115 147 
115 148 
115 149 
115 150 
115 163 
115 167 
115 170 
115 176 
116 117 
116 118 
116 119 
116 120 
116 123 
116 126 
116 128 
116 130 
116 142 
116 144 
116 151 
116 156 
116 157 
116 158 
116 159 
116 167 
116 169 
116 172 
116 174 
117 118 
117 119 
117 120 
117 132 
117 138 
117 148 
117 152 
117 155 
117 157 
117 160 
117 162 
117 164 
117 170 
117 171 
117 172 
118 119 
118 120 
118 121 
118 124 
118 134 
118 136 
118 138 
118 143 
118 145 
118 150 
118 153 
118 156 
118 157 
118 161 
118 163 
118 165 
118 168 
118 174 
119 120 
119 126 
119 127 
119 130 
119 140 
119 143 
119 145 
119 146 
119 149 
119 159 
119 162 
119 164 
119 169 
119 173 
119 176 
120 127 
120 132 
120 134 
120 135 
120 139 
120 142 
120 150 
120 159 
120 161 
120 165 
120 171 
120 172 
120 173 
120 175 
121 122 
121 123 
121 124 
121 125 
121 126 
121 127 
121 128 
121 129 
121 130 
121 131 
121 132 
121 133 
121 134 
121 136 
121 143 
121 153 
121 157 
121 161 
121 165 
121 168 
122 123 
122 124 
122 125 
122 126 
122 127 
122 129 
122 135 
122 141 
122 142 
122 143 
122 144 
122 145 
122 147 
122 152 
122 156 
122 165 
122 166 
122 167 
123 124 
123 125 
123 126 
123 127 
123 130 
123 136 
123 142 
123 146 
123 147 
123 148 
123 149 
123 150 
123 151 
123 156 
123 157 
123 158 
123 159 
124 125 
124 126 
124 127 
124 134 
124 138 
124 141 
124 145 
124 146 
124 150 
124 151 
124 152 
124 153 
124 154 
124 155 
124 156 
124 163 
124 174 
125 126 
125 127 
125 133 
125 140 
125 141 
125 144 
125 155 
125 158 
125 160 
125 163 
125 167 
125 168 
125 170 
125 173 
125 176 
126 127 
126 128 
126 130 
126 140 
126 143 
126 144 
126 149 
126 164 
126 167 
126 169 
126 172 
126 173 
126 174 
127 134 
127 139 
127 142 
127 145 
127 146 
127 159 
127 161 
127 162 
127 169 
127 172 
127 173 
127 175 
127 176 
128 129 
128 130 
128 131 
128 132 
128 133 
128 134 
128 135 
128 136 
128 137 
128 138 
128 139 
128 140 
128 144 
128 167 
128 169 
128 172 
128 174 
129 130 
129 131 
129 132 
129 133 
129 134 
129 135 
129 137 
129 141 
129 142 
129 143 
129 144 
129 145 
129 154 
129 164 
129 168 
129 171 
129 175 
129 176 
130 131 
130 132 
130 133 
130 134 
130 140 
130 142 
130 143 
130 149 
130 151 
130 156 
130 157 
130 158 
130 159 
130 164 
130 173 
131 132 
131 133 
131 134 
131 137 
131 139 
131 147 
131 149 
131 151 
131 154 
131 158 
131 160 
131 161 
131 162 
131 163 
131 166 
131 169 
132 133 
132 134 
132 135 
132 138 
132 148 
132 150 
132 152 
132 159 
132 160 
132 164 
132 165 
132 171 
133 134 
133 144 
133 148 
133 153 
133 155 
133 158 
133 160 
133 166 
133 168 
133 170 
133 173 
133 174 
133 175 
134 138 
134 139 
134 142 
134 145 
134 150 
134 156 
134 161 
134 163 
134 172 
134 173 
134 174 
134 175 
135 136 
135 137 
135 138 
135 139 
135 140 
135 141 
135 142 
135 143 
135 144 
135 145 
135 150 
135 159 
135 165 
135 171 
136 137 
136 138 
136 139 
136 140 
136 143 
136 146 
136 147 
136 148 
136 149 
136 150 
136 153 
136 157 
136 161 
136 165 
136 168 
137 138 
137 139 
137 140 
137 147 
137 151 
137 154 
137 160 
137 161 
137 162 
137 163 
137 164 
137 168 
137 171 
137 175 
137 176 
138 139 
138 140 
138 145 
138 148 
138 150 
138 152 
138 156 
138 160 
138 163 
138 164 
138 174 
139 140 
139 142 
139 149 
139 154 
139 158 
139 161 
139 166 
139 169 
139 172 
139 173 
139 175 
140 141 
140 143 
140 149 
140 163 
140 164 
140 167 
140 170 
140 173 
140 176 
141 142 
141 143 
141 144 
141 145 
141 146 
141 151 
141 152 
141 153 
141 154 
141 155 
141 163 
141 167 
141 170 
141 176 
142 143 
142 144 
142 145 
142 151 
142 156 
142 157 
142 158 
142 159 
142 161 
142 172 
142 173 
142 175 
143 144 
143 145 
143 149 
143 153 
143 157 
143 161 
143 164 
143 165 
143 168 
143 173 
144 145 
144 155 
144 158 
144 160 
144 167 
144 168 
144 169 
144 172 
144 173 
144 174 
145 146 
145 150 
145 156 
145 159 
145 162 
145 163 
145 169 
145 174 
145 176 
146 147 
146 148 
146 149 
146 150 
146 151 
146 152 
146 153 
146 154 
146 155 
146 159 
146 162 
146 169 
146 176 
147 148 
147 149 
147 150 
147 151 
147 152 
147 156 
147 160 
147 161 
147 162 
147 163 
147 165 
147 166 
147 167 
148 149 
148 150 
148 152 
148 153 
148 160 
148 164 
148 166 
148 170 
148 174 
148 175 
149 150 
149 154 
149 158 
149 164 
149 166 
149 169 
149 173 
150 156 
150 159 
150 163 
150 165 
150 171 
150 174 
151 152 
151 153 
151 154 
151 155 
151 156 
151 157 
151 158 
151 159 
151 160 
151 161 
151 162 
151 163 
152 153 
152 154 
152 155 
152 156 
152 160 
152 164 
152 165 
152 166 
152 167 
153 154 
153 155 
153 157 
153 161 
153 165 
153 166 
153 168 
153 170 
153 174 
153 175 
154 155 
154 158 
154 164 
154 166 
154 168 
154 169 
154 171 
154 175 
154 176 
155 157 
155 158 
155 160 
155 162 
155 168 
155 170 
155 171 
155 172 
155 173 
156 157 
156 158 
156 159 
156 163 
156 165 
156 166 
156 167 
156 174 
157 158 
157 159 
157 161 
157 162 
157 165 
157 168 
157 170 
157 171 
157 172 
158 159 
158 160 
158 166 
158 168 
158 169 
158 173 
159 162 
159 165 
159 169 
159 171 
159 176 
160 161 
160 162 
160 163 
160 164 
160 168 
160 173 
161 162 
161 163 
161 165 
161 168 
161 172 
161 173 
161 175 
162 163 
162 169 
162 170 
162 171 
162 172 
162 176 
163 167 
163 170 
163 174 
163 176 
164 168 
164 171 
164 173 
164 175 
164 176 
165 166 
165 167 
165 168 
165 171 
166 167 
166 169 
166 170 
166 174 
166 175 
167 169 
167 170 
167 172 
167 174 
167 176 
168 171 
168 173 
168 175 
168 176 
169 172 
169 174 
169 176 
170 171 
170 172 
170 174 
170 175 
170 176 
171 172 
171 175 
171 176 
172 173 
172 174 
172 175 
173 175 
174 175 
175 176 
